n_elements = 12; 
n_sets = 25;
costs = [4, 4, 3, 3, 3, 3, 3, 2, 2, 2, 2, 2, 1, 1, 1, 1, 1, 1, 1, 1, 1, 1, 1, 1, 1];
sets = [{0, 2, 4, 6, 8, 10}, {1, 3, 5, 7, 9}, {8, 9, 10, 11}, {7, 8, 9}, {5, 7}, {2}, {0, 5, 6, 7, 8}, {11}, {0, 7, }, {2, 6, 7, 8}, {4, 5, 8}, {0, 1}, {2, 3}, {3, 4}, {1, 2, 3}, {6, 7, 8, 9}, {9, 10}, {5, 6, 7, 8}, {8, 9}, {0, 4, 8, 9}, {3, 5, 7}, {1, 5, 8, 9}, {2, 3, 6, 7}, {3, 6}, {4, 8, 9, 10}];